<number of tasks>
50

<cycle time>
1000

<order strength>
0.199


<task times>
1 582
2 432
3 567
4 536
5 361
6 712
7 465
8 484
9 533
10 471
11 246
12 613
13 480
14 434
15 569
16 340
17 247
18 520
19 479
20 514
21 582
22 407
23 484
24 436
25 470
26 603
27 358
28 576
29 424
30 675
31 574
32 555
33 512
34 646
35 562
36 399
37 439
38 747
39 456
40 641
41 554
42 384
43 560
44 447
45 471
46 800
47 430
48 467
49 533
50 460

<precedence relations>
1,15
2,8
2,10
2,12
2,14
3,11
3,14
4,17
5,37
5,48
6,9
6,13
7,10
7,43
8,16
9,19
10,16
12,17
13,18
14,18
15,20
15,31
16,23
16,29
16,47
17,42
18,26
19,22
19,25
19,27
20,21
20,24
20,28
23,46
25,34
26,30
26,33
26,35
27,31
27,32
28,36
28,37
29,38
30,40
31,39
32,38
32,41
36,49
37,42
38,46
40,45
41,43
41,44
42,47
43,49
45,48
46,50
47,49

<end>
